(set-logic QF_S)
(declare-fun var0 () String)
(assert (str.in.re var0 (re.++ (re.union (re.+ (str.to.re "00")) (re.+ (str.to.re "1"))) (re.++ (re.union (re.+ (str.to.re "22")) (re.+ (str.to.re "33"))) (re.++ (re.+ (re.* (str.to.re "4"))) (re.++ (re.* (re.union (str.to.re "55") (str.to.re "66"))) (re.++ (re.+ (re.+ (str.to.re "777"))) (re.++ (re.union (re.* (str.to.re "88")) (re.* (str.to.re "999"))) (re.++ (re.* (re.* (str.to.re "a"))) (re.++ (re.* (re.* (str.to.re "b"))) (re.++ (re.+ (re.+ (str.to.re "c"))) (re.++ (re.union (re.union (str.to.re "dd") (str.to.re "e")) (re.union (str.to.re "ff") (str.to.re "ggg"))) (re.++ (re.* (re.+ (str.to.re "h"))) (re.++ (re.union (re.+ (str.to.re "i")) (re.+ (str.to.re "jj"))) (re.++ (re.+ (re.* (str.to.re "kk"))) (re.++ (re.union (re.+ (str.to.re "l")) (re.+ (str.to.re "mm"))) (re.++ (re.union (re.union (str.to.re "n") (str.to.re "o")) (re.union (str.to.re "ppp") (str.to.re "qqq"))) (re.++ (re.+ (re.+ (str.to.re "rrr"))) (re.++ (re.* (re.+ (str.to.re "s"))) (re.++ (re.union (re.* (str.to.re "t")) (re.* (str.to.re "uuu"))) (re.++ (re.union (re.* (str.to.re "vv")) (re.* (str.to.re "www"))) (re.++ (re.union (re.* (str.to.re "xxx")) (re.* (str.to.re "yyy"))) (re.++ (re.* (re.union (str.to.re "zz") (str.to.re "AA"))) (re.union (re.union (str.to.re "BB") (str.to.re "C")) (re.union (str.to.re "D") (str.to.re "E"))))))))))))))))))))))))))
(check-sat)